69 47 18 46 56 28 79 5 57 77 39 8 53 59 96 38 20 10 52 27 23 51 3 62 31 89 48 49 42 58 0 74 60 14 83 81 99 82 68 72 43 95 84 97 94 50 80 93 98 91 67 87 92 54 78 33 88 45 64 86 85 32 73 44 65 66 90 63 76 75 70 61 41 40 37 34 22 36 35 30 29 26 17 11 15 13 25 6 24 4 19 1 12 9 2 21 55 7 16 71 

